
mapping with 16 threads...

 0:00:01.83 Mapping INCOV055-BL.extracted.fq.gz to NUC reference...

 0:03:58.58 Generating binary hit matrix.
0:03:58.61 Loading /labs/khatrilab/solomonb/covid/isb/optitype/INCOV055-BL_1.bam started. Number of HLA reads loaded (updated every thousand):
1K...2K...3K...4K...5K...6K...7K...8K...9K...10K...11K...12K...13K...14K...15K...16K...17K...18K...19K...20K...21K...22K...
 0:04:09.02 22472 reads loaded. Creating dataframe...
0:06:35.96 Dataframes created. Shape: 22472 x 7339, hits: 7756844 (7897679), sparsity: 1 in 20.88

 0:06:46.71 temporary pruning of identical rows and columns

 0:06:47.27 Size of mtx with unique rows and columns: (1144, 1290)
0:06:47.27 determining minimal set of non-overshadowed alleles

 0:06:56.16 Keeping only the minimal number of required alleles (419,)

 0:06:56.21 Creating compact model...

starting ilp solver with 1 threads...

 0:07:05.21 Initializing OptiType model...
GLPSOL: GLPK LP/MIP Solver, v4.57
Parameter(s) specified in the command line:
 --write /tmp/tmpx5Du2N.glpk.raw --wglp /tmp/tmpHoafDJ.glpk.glp --cpxlp /tmp/tmpyFLcdr.pyomo.lp
Reading problem data from '/tmp/tmpyFLcdr.pyomo.lp'...
/tmp/tmpyFLcdr.pyomo.lp:34895: warning: lower bound of variable 'x2765' redefined
/tmp/tmpyFLcdr.pyomo.lp:34895: warning: upper bound of variable 'x2765' redefined
2764 rows, 1797 columns, 23422 non-zeros
1107 integer variables, all of which are binary
36002 lines were read
Writing problem data to '/tmp/tmpHoafDJ.glpk.glp'...
32816 lines were written
GLPK Integer Optimizer, v4.57
2764 rows, 1797 columns, 23422 non-zeros
1107 integer variables, all of which are binary
Preprocessing...
1 hidden packing inequaliti(es) were detected
602 hidden covering inequaliti(es) were detected
2759 rows, 1795 columns, 23414 non-zeros
1106 integer variables, all of which are binary
Scaling...
 A: min|aij| =  1.000e+00  max|aij| =  5.000e+00  ratio =  5.000e+00
Problem data seem to be well scaled
Constructing initial basis...
Size of triangular part is 2759
Solving LP relaxation...
GLPK Simplex Optimizer, v4.57
2759 rows, 1795 columns, 23414 non-zeros
      0: obj =  -0.000000000e+00 inf =   4.000e+00 (4)
      4: obj =  -0.000000000e+00 inf =   0.000e+00 (0)
*   500: obj =   1.772093000e+04 inf =   3.997e-15 (529) 1
*  1000: obj =   1.866355300e+04 inf =   1.665e-14 (253)
*  1269: obj =   1.885773100e+04 inf =   0.000e+00 (0)
OPTIMAL LP SOLUTION FOUND
Integer optimization begins...
+  1269: mip =     not found yet <=              +inf        (1; 0)
+  1271: >>>>>   1.885771300e+04 <=   1.885771300e+04   0.0% (2; 0)
+  1271: mip =   1.885771300e+04 <=     tree is empty   0.0% (0; 3)
INTEGER OPTIMAL SOLUTION FOUND
Time used:   0.1 secs
Memory used: 5.9 Mb (6237793 bytes)
Writing MIP solution to '/tmp/tmpx5Du2N.glpk.raw'...
4563 lines were written

 0:07:07.93 Result dataframe has been constructed...
